1 1159 5
2 1028 5
3 952 5
5 926 5
11 912 5
24 907 5
44 898 5
72 890 5
93 886 5
513 872 5



1 1152 5
2 1052 5
3 987 5
7 921 5
26 914 5
27 901 5
37 897 5
43 894 5
117 890 5
286 872 5
960 862 5



1 1182 6
2 986 5
5 980 5
8 973 6
10 907 5
38 888 5



1 1124 6
2 1063 5
3 1002 5
4 998 5
6 955 5
7 946 5
11 917 5
12 909 5
13 890 5
52 889 5
188 887 5
746 884 5



1 1202 6
2 1090 5
3 1009 5
4 947 5
9 933 5
16 931 5
23 926 5
30 913 5
39 910 5
53 897 5
318 896 5
486 878 5
799 874 5
814 868 5



